8	4
2	3	1	18	3	21	4	15	3	4	18	2	15	3	21
2	3	2	33	4	30	3	36	3	4	27	3	30	1	24
2	3	2	27	3	30	4	24	3	4	21	1	18	3	24
2	3	3	48	2	42	1	51	3	4	21	3	27	2	18
2	3	1	27	4	33	2	30	3	3	54	2	60	4	51
3	3	2	39	3	36	1	42	3	3	57	4	54	2	51	3	4	18	1	24	3	21
3	3	1	30	3	33	4	33	3	2	27	1	30	3	30	3	3	39	2	33	1	33
3	3	1	33	2	27	4	30	3	2	27	3	30	1	33	3	4	24	1	27	3	21
0	2	4	5	7
9	0	2	3	5
10	7	0	4	3
6	4	3	0	3
7	7	6	3	0
